(set-info :smt-lib-version 2.6)
(set-logic ALIA)
(set-info :source |
Generated by the tool Ultimate Automizer [1,2] which implements
an automata theoretic approach [3] to software verification.

This SMT script belongs to a set of SMT scripts that was generated by
applying Ultimate Automizer to benchmarks [4] from the SV-COMP 2023 [5,6].
This script may not contain all SMT commands that Ultimate Automizer
issued. In order to meet the restrictions for SMT-COMP benchmarks 
we dropped the commands for getting values (resp. models), 
unsatisfiable cores, and interpolants.

2023-03-21, Matthias Heizmann (heizmann@informatik.uni-freiburg.de)

[1] https://ultimate.informatik.uni-freiburg.de/automizer/
[2] Matthias Heizmann, Max Barth, Daniel Dietsch, Leonard Fichtner,
     Jochen Hoenicke, Dominik Klumpp, Mehdi Naouar, Tanja Schindler,
     Frank Schüssele, Andreas Podelski: Ultimate Automizer and the
     CommuHash Normal Form (Competition Contribution). TACAS 2023
[3] Matthias Heizmann, Jochen Hoenicke, Andreas Podelski: Software Model
     Checking for People Who Love Automata. CAV 2013
[4] https://github.com/sosy-lab/sv-benchmarks
[5] Dirk Beyer: Competition on Software Verification and
     Witness Validation: SV-COMP 2023.  TACAS 2023
[6] https://sv-comp.sosy-lab.org/2023/
|)
(set-info :license "https://creativecommons.org/licenses/by/4.0/")
(set-info :category "industrial")
(set-info :status unknown)
(declare-fun ~unnamed0~0~P_ALL () Int)
(declare-fun ~unnamed0~0~P_PID () Int)
(declare-fun ~unnamed0~0~P_PGID () Int)
(declare-fun |c_#valid| () (Array Int Int))
(declare-fun |c_#valid_primed| () (Array Int Int))
(declare-fun |c_#length| () (Array Int Int))
(declare-fun |c_#length_primed| () (Array Int Int))
(declare-fun |c_#memory_int| () (Array Int (Array Int Int)))
(declare-fun |c_#memory_int_primed| () (Array Int (Array Int Int)))
(declare-fun |c_#memory_$Pointer$.base| () (Array Int (Array Int Int)))
(declare-fun |c_#memory_$Pointer$.base_primed| () (Array Int (Array Int Int)))
(declare-fun |c_#memory_$Pointer$.offset| () (Array Int (Array Int Int)))
(declare-fun |c_#memory_$Pointer$.offset_primed| () (Array Int (Array Int Int)))
(declare-fun |c_#StackHeapBarrier| () Int)
(declare-fun |c_ULTIMATE.start_main_#t~mem6#1_primed| () Int)
(declare-fun |c_ULTIMATE.start_main_~p~0#1.base| () Int)
(declare-fun |c_ULTIMATE.start_main_~p~0#1.base_primed| () Int)
(declare-fun |c_ULTIMATE.start_main_~p~0#1.offset| () Int)
(declare-fun |c_ULTIMATE.start_main_~p~0#1.offset_primed| () Int)
(declare-fun |c_ULTIMATE.start_main_#t~nondet3#1| () Int)
(declare-fun |c_ULTIMATE.start_main_~l~0#1.base| () Int)
(declare-fun |c_ULTIMATE.start_main_~l~0#1.base_primed| () Int)
(declare-fun |c_ULTIMATE.start_main_~l~0#1.offset| () Int)
(declare-fun |c_ULTIMATE.start_main_~l~0#1.offset_primed| () Int)
(declare-fun |c_ULTIMATE.start_main_~min~0#1| () Int)
(assert (= ~unnamed0~0~P_ALL 0))
(assert (= ~unnamed0~0~P_PID 1))
(assert (= 2 ~unnamed0~0~P_PGID))
(declare-fun |c_aux_v_#memory_$Pointer$.offset_4| () (Array Int (Array Int Int)))
(declare-fun |c_aux_v_#memory_$Pointer$.base_4| () (Array Int (Array Int Int)))
(declare-fun |c_aux_v_ULTIMATE.start_main_#t~nondet5#1_4| () Int)
(assert (let ((.cse0 (select |c_#memory_int_primed| |c_ULTIMATE.start_main_~p~0#1.base_primed|)) (.cse3 (select |c_aux_v_#memory_$Pointer$.base_4| |c_ULTIMATE.start_main_~p~0#1.base_primed|)) (.cse2 (select |c_aux_v_#memory_$Pointer$.offset_4| |c_ULTIMATE.start_main_~p~0#1.base_primed|)) (.cse1 (+ |c_ULTIMATE.start_main_~p~0#1.offset_primed| 8))) (and (not (= |c_ULTIMATE.start_main_~p~0#1.base_primed| 0)) (not (= |c_ULTIMATE.start_main_#t~nondet3#1| 0)) (= |c_ULTIMATE.start_main_#t~mem6#1_primed| (select .cse0 .cse1)) (= (store |c_aux_v_#memory_$Pointer$.offset_4| |c_ULTIMATE.start_main_~p~0#1.base_primed| (store .cse2 |c_ULTIMATE.start_main_~p~0#1.offset_primed| |c_ULTIMATE.start_main_~l~0#1.offset|)) |c_#memory_$Pointer$.offset_primed|) (< |c_ULTIMATE.start_main_~p~0#1.base_primed| |c_#StackHeapBarrier|) (= |c_#length_primed| (store |c_#length| |c_ULTIMATE.start_main_~p~0#1.base_primed| 12)) (= |c_ULTIMATE.start_main_~p~0#1.offset_primed| 0) (= |c_#valid_primed| (store |c_#valid| |c_ULTIMATE.start_main_~p~0#1.base_primed| 1)) (= |c_#memory_int_primed| (store |c_#memory_int| |c_ULTIMATE.start_main_~p~0#1.base_primed| (store (store (select |c_#memory_int| |c_ULTIMATE.start_main_~p~0#1.base_primed|) .cse1 |c_aux_v_ULTIMATE.start_main_#t~nondet5#1_4|) |c_ULTIMATE.start_main_~p~0#1.offset_primed| (select .cse0 |c_ULTIMATE.start_main_~p~0#1.offset_primed|)))) (= 0 (select |c_#valid| |c_ULTIMATE.start_main_~p~0#1.base_primed|)) (= |c_ULTIMATE.start_main_~l~0#1.offset_primed| |c_ULTIMATE.start_main_~p~0#1.offset_primed|) (= |c_ULTIMATE.start_main_~p~0#1.base_primed| |c_ULTIMATE.start_main_~l~0#1.base_primed|) (<= 0 (+ |c_aux_v_ULTIMATE.start_main_#t~nondet5#1_4| 2147483648)) (= (store |c_#memory_$Pointer$.base| |c_ULTIMATE.start_main_~p~0#1.base_primed| (store (select |c_#memory_$Pointer$.base| |c_ULTIMATE.start_main_~p~0#1.base_primed|) .cse1 (select .cse3 .cse1))) |c_aux_v_#memory_$Pointer$.base_4|) (<= |c_aux_v_ULTIMATE.start_main_#t~nondet5#1_4| 2147483647) (= |c_#memory_$Pointer$.base_primed| (store |c_aux_v_#memory_$Pointer$.base_4| |c_ULTIMATE.start_main_~p~0#1.base_primed| (store .cse3 |c_ULTIMATE.start_main_~p~0#1.offset_primed| |c_ULTIMATE.start_main_~l~0#1.base|))) (= |c_aux_v_#memory_$Pointer$.offset_4| (store |c_#memory_$Pointer$.offset| |c_ULTIMATE.start_main_~p~0#1.base_primed| (store (select |c_#memory_$Pointer$.offset| |c_ULTIMATE.start_main_~p~0#1.base_primed|) .cse1 (select .cse2 .cse1)))))))
(assert (let ((.cse3 (select |c_#memory_$Pointer$.offset| |c_ULTIMATE.start_main_~p~0#1.base|)) (.cse2 (select |c_#memory_$Pointer$.base| |c_ULTIMATE.start_main_~p~0#1.base|))) (let ((.cse0 (select .cse2 |c_ULTIMATE.start_main_~p~0#1.offset|)) (.cse1 (select .cse3 |c_ULTIMATE.start_main_~p~0#1.offset|))) (and (= (select |c_#valid| |c_ULTIMATE.start_main_~p~0#1.base|) 1) (<= |c_ULTIMATE.start_main_~min~0#1| (select (select |c_#memory_int| |c_ULTIMATE.start_main_~p~0#1.base|) 8)) (= (select (select |c_#memory_$Pointer$.offset| .cse0) .cse1) 0) (= |c_ULTIMATE.start_main_~p~0#1.offset| |c_ULTIMATE.start_main_~l~0#1.offset|) (forall ((v_ArrVal_814 (Array Int Int)) (v_arrayElimArr_17 (Array Int Int)) (|v_ULTIMATE.start_main_~l~0#1.base_45| Int) (v_arrayElimArr_18 (Array Int Int))) (or (<= |c_ULTIMATE.start_main_~min~0#1| (select (select (store |c_#memory_int| |v_ULTIMATE.start_main_~l~0#1.base_45| v_ArrVal_814) (select (select (store |c_#memory_$Pointer$.base| |v_ULTIMATE.start_main_~l~0#1.base_45| v_arrayElimArr_17) |c_ULTIMATE.start_main_~l~0#1.base|) |c_ULTIMATE.start_main_~l~0#1.offset|)) (+ (select (select (store |c_#memory_$Pointer$.offset| |v_ULTIMATE.start_main_~l~0#1.base_45| v_arrayElimArr_18) |c_ULTIMATE.start_main_~l~0#1.base|) |c_ULTIMATE.start_main_~l~0#1.offset|) 8))) (not (= (select |c_#valid| |v_ULTIMATE.start_main_~l~0#1.base_45|) 0)) (not (= (select v_arrayElimArr_17 0) |c_ULTIMATE.start_main_~l~0#1.base|)) (not (= (select v_arrayElimArr_18 0) |c_ULTIMATE.start_main_~l~0#1.offset|)))) (or (<= (+ |c_ULTIMATE.start_main_~min~0#1| 1) (select (select |c_#memory_int| (select (select |c_#memory_$Pointer$.base| .cse0) .cse1)) 8)) (= (select (select |c_#memory_$Pointer$.base| (select .cse2 0)) (select .cse3 0)) |c_ULTIMATE.start_main_~p~0#1.base|)) (= |c_ULTIMATE.start_main_~p~0#1.base| |c_ULTIMATE.start_main_~l~0#1.base|) (= |c_ULTIMATE.start_main_~p~0#1.offset| 0)))))
(assert (not (let ((.cse0 (select (select |c_#memory_$Pointer$.base_primed| |c_ULTIMATE.start_main_~l~0#1.base_primed|) |c_ULTIMATE.start_main_~l~0#1.offset_primed|)) (.cse1 (select (select |c_#memory_$Pointer$.offset_primed| |c_ULTIMATE.start_main_~l~0#1.base_primed|) |c_ULTIMATE.start_main_~l~0#1.offset_primed|))) (and (= (select (select |c_#memory_$Pointer$.offset_primed| .cse0) .cse1) 0) (<= |c_ULTIMATE.start_main_~min~0#1| (select (select |c_#memory_int_primed| (select (select |c_#memory_$Pointer$.base_primed| .cse0) .cse1)) 8))))))
(check-sat)
(exit)
